g3 0 1 0	# problem kall_circlespolygons_c1p5a
 158 174 1 0 145	# vars, constraints, objectives, ranges, eqns
 106 0	# nonlinear constraints, objectives
 0 0	# network constraints: nonlinear, linear
 68 0 0	# nonlinear vars in constraints, objectives, both
 0 0 0 1	# linear network variables; functions; arith, flags
 0 0 0 0 0	# discrete variables: binary, integer, nonlinear (b,c,o)
 619 1	# nonzeros in Jacobian, gradients
 4 6	# max name lengths: constraints, variables
 0 0 0 0 0	# common exprs: b,c,o,c1,o1
b
0 -1 1
0 -1 1
0 -1 1
0 -1 1
0 0 8.94427190999916
0 0 8.94427190999916
0 0 8.94427190999916
0 0 8.94427190999916
0 0 8.94427190999916
0 0 8.94427190999916
0 0 8.94427190999916
0 0 8.94427190999916
0 0 8.94427190999916
0 0 8.94427190999916
0 0 8.94427190999916
0 0 8.94427190999916
0 -8.94427190999916 8.94427190999916
0 -8.94427190999916 8.94427190999916
0 -8.94427190999916 8.94427190999916
0 -8.94427190999916 8.94427190999916
0 -8.94427190999916 8.94427190999916
0 -8.94427190999916 8.94427190999916
0 -8.94427190999916 8.94427190999916
0 -8.94427190999916 8.94427190999916
0 -8.94427190999916 8.94427190999916
0 -8.94427190999916 8.94427190999916
0 -8.94427190999916 8.94427190999916
0 -8.94427190999916 8.94427190999916
0 -1 1
0 -1 1
0 -1 1
0 -1 1
0 0 8.94427190999916
0 0 8.94427190999916
0 0 8.94427190999916
0 0 8.94427190999916
0 0 8.94427190999916
0 0 8.94427190999916
0 0 8.94427190999916
0 0 8.94427190999916
0 0 8.94427190999916
0 0 8.94427190999916
0 0 8.94427190999916
0 0 8.94427190999916
0 -8.94427190999916 8.94427190999916
0 -8.94427190999916 8.94427190999916
0 -8.94427190999916 8.94427190999916
0 -8.94427190999916 8.94427190999916
0 -8.94427190999916 8.94427190999916
0 -8.94427190999916 8.94427190999916
0 -8.94427190999916 8.94427190999916
0 -8.94427190999916 8.94427190999916
0 -8.94427190999916 8.94427190999916
0 -8.94427190999916 8.94427190999916
0 -8.94427190999916 8.94427190999916
0 -8.94427190999916 8.94427190999916
0 -8.94427190999916 8.94427190999916
0 -8.94427190999916 8.94427190999916
0 -1 1
0 -1 1
0 -1 1
0 -1 1
0 -1 1
0 -1 1
0 -1 1
0 -1 1
0 0 8
0 0 4
0 1.44 32
0 0 8
0 0 4
0 -8.94427190999916 8.94427190999916
0 -8.94427190999916 8.94427190999916
0 -8.94427190999916 8.94427190999916
0 -8.94427190999916 8.94427190999916
0 -8.94427190999916 8.94427190999916
0 -8.94427190999916 8.94427190999916
0 -8.94427190999916 8.94427190999916
0 -8.94427190999916 8.94427190999916
0 -8.94427190999916 8.94427190999916
0 -8.94427190999916 8.94427190999916
0 -8.94427190999916 8.94427190999916
0 -8.94427190999916 8.94427190999916
0 -8.94427190999916 8.94427190999916
0 -8.94427190999916 8.94427190999916
0 -8.94427190999916 8.94427190999916
0 -8.94427190999916 8.94427190999916
0 -8.94427190999916 8.94427190999916
0 -8.94427190999916 8.94427190999916
0 -8.94427190999916 8.94427190999916
0 -8.94427190999916 8.94427190999916
0 -8.94427190999916 8.94427190999916
0 -8.94427190999916 8.94427190999916
0 -8.94427190999916 8.94427190999916
0 -8.94427190999916 8.94427190999916
0 0 8
0 0 4
0 0 8
0 0 4
0 -8.94427190999916 8.94427190999916
0 -8.94427190999916 8.94427190999916
0 -8.94427190999916 8.94427190999916
0 -8.94427190999916 8.94427190999916
0 -8.94427190999916 8.94427190999916
0 -8.94427190999916 8.94427190999916
0 -8.94427190999916 8.94427190999916
0 -8.94427190999916 8.94427190999916
0 -8.94427190999916 8.94427190999916
0 -8.94427190999916 8.94427190999916
0 -8.94427190999916 8.94427190999916
0 -8.94427190999916 8.94427190999916
0 -8.94427190999916 8.94427190999916
0 -8.94427190999916 8.94427190999916
0 -8.94427190999916 8.94427190999916
0 -8.94427190999916 8.94427190999916
0 -8.94427190999916 8.94427190999916
0 -8.94427190999916 8.94427190999916
0 -8.94427190999916 8.94427190999916
0 -8.94427190999916 8.94427190999916
0 -8.94427190999916 8.94427190999916
0 -8.94427190999916 8.94427190999916
0 -8.94427190999916 8.94427190999916
0 -8.94427190999916 8.94427190999916
0 -8.94427190999916 8.94427190999916
0 -8.94427190999916 8.94427190999916
0 -8.94427190999916 8.94427190999916
0 -8.94427190999916 8.94427190999916
0 1.2 6.8
0 1.2 2.8
0 0 8
0 0 4
0 0 8
0 0 4
0 0 8
0 0 4
0 0 8
0 0 4
0 0 8
0 0 4
0 0 8
0 0 4
0 0 8
0 0 4
0 0 8
0 0 4
0 0 8
0 0 4
0 0 8
0 0 4
0 0 8
0 0 4
0 0 8
0 0 4
0 0 8
0 0 4
0 0 8
0 0 4
0 0 32
x3
68 1.44
127 1.2
128 1.2
r
4 0
4 1
4 1
4 1
4 0
4 0
4 0
4 0
4 0
4 0
4 0
4 0
4 0
4 0
4 0
4 0
4 0
4 0
4 0
4 0
4 0
4 0
4 0
4 0
4 0
4 0
4 0
4 0
4 0
4 0
4 0
4 0
4 0
4 0
4 0
4 0
4 0
4 0
4 0
4 0
4 0
4 0
4 0
4 0
4 0
4 0
4 0
4 0
4 0
4 0
4 0
4 0
4 1
4 1
4 0
4 0
4 0
4 0
4 0
4 0
4 0
4 0
4 0
4 0
4 0
4 0
4 0
4 0
4 0
4 0
4 0
4 0
4 0
4 0
4 0
4 0
4 0
4 0
4 0
4 0
4 0
4 0
4 0
4 0
4 0
4 0
4 0
4 0
4 0
4 0
4 0
4 0
4 0
4 0
4 0
4 0
4 0
4 0
4 0
4 0
4 0
4 0
4 0
4 0
4 0
4 0
4 -8.5238934211693
1 -1.2
1 -1.2
4 0
4 0
4 0
4 0
1 0
1 0
1 0
1 0
1 0
1 0
1 0
1 0
1 0
1 0
1 0
1 0
1 0
1 0
1 0
1 0
1 0
1 0
1 0
1 0
1 0
1 0
1 0
1 0
4 0
4 0
4 0
4 0
4 0
4 0
4 0
4 0
4 0
4 0
4 0
4 0
4 0
4 0
4 0
4 0
4 0
4 0
4 0
4 0
4 0
4 0
4 0
4 0
4 0
4 0
4 0
4 0
4 0
4 0
4 0
4 0
4 0
4 0
1 4
1 2
1 0
C0
o16
o2
v66
v67
C1
o0
o2
v0
v0
o2
v2
v2
C2
o0
o2
v1
v1
o2
v3
v3
C3
o0
o2
v28
v28
o2
v29
v29
C4
o2
v28
v16
C5
o2
v29
v16
C6
o2
v28
v17
C7
o2
v29
v17
C8
o2
v28
v18
C9
o2
v29
v18
C10
o2
v28
v19
C11
o2
v29
v19
C12
o2
v28
v20
C13
o2
v29
v20
C14
o2
v28
v21
C15
o2
v29
v21
C16
o2
v28
v22
C17
o2
v29
v22
C18
o2
v28
v23
C19
o2
v29
v23
C20
o2
v28
v24
C21
o2
v29
v24
C22
o2
v28
v25
C23
o2
v29
v25
C24
o2
v28
v26
C25
o2
v29
v26
C26
o2
v28
v27
C27
o2
v29
v27
C28
o16
o2
v4
v30
C29
o16
o2
v4
v31
C30
o16
o2
v5
v30
C31
o16
o2
v5
v31
C32
o16
o2
v6
v30
C33
o16
o2
v6
v31
C34
o16
o2
v7
v30
C35
o16
o2
v7
v31
C36
o16
o2
v8
v30
C37
o16
o2
v8
v31
C38
o16
o2
v9
v30
C39
o16
o2
v9
v31
C40
o2
v10
v30
C41
o2
v10
v31
C42
o2
v11
v30
C43
o2
v11
v31
C44
o2
v12
v30
C45
o2
v12
v31
C46
o2
v13
v30
C47
o2
v13
v31
C48
o2
v14
v30
C49
o2
v14
v31
C50
o2
v15
v30
C51
o2
v15
v31
C52
o0
o2
v58
v58
o2
v59
v59
C53
o0
o2
v60
v60
o2
v61
v61
C54
o2
v58
v44
C55
o2
v59
v44
C56
o2
v58
v45
C57
o2
v59
v45
C58
o2
v58
v46
C59
o2
v59
v46
C60
o2
v58
v47
C61
o2
v59
v47
C62
o2
v58
v48
C63
o2
v59
v48
C64
o2
v58
v49
C65
o2
v59
v49
C66
o2
v60
v50
C67
o2
v61
v50
C68
o2
v60
v51
C69
o2
v61
v51
C70
o2
v60
v52
C71
o2
v61
v52
C72
o2
v60
v53
C73
o2
v61
v53
C74
o2
v60
v54
C75
o2
v61
v54
C76
o2
v60
v55
C77
o2
v61
v55
C78
o2
v58
v56
C79
o2
v59
v56
C80
o2
v60
v57
C81
o2
v61
v57
C82
o16
o2
v32
v62
C83
o16
o2
v32
v63
C84
o16
o2
v33
v62
C85
o16
o2
v33
v63
C86
o16
o2
v34
v62
C87
o16
o2
v34
v63
C88
o16
o2
v35
v62
C89
o16
o2
v35
v63
C90
o16
o2
v36
v62
C91
o16
o2
v36
v63
C92
o16
o2
v37
v62
C93
o16
o2
v37
v63
C94
o16
o2
v38
v64
C95
o16
o2
v38
v65
C96
o16
o2
v39
v64
C97
o16
o2
v39
v65
C98
o16
o2
v40
v64
C99
o16
o2
v40
v65
C100
o16
o2
v41
v64
C101
o16
o2
v41
v65
C102
o16
o2
v42
v64
C103
o16
o2
v42
v65
C104
o16
o2
v43
v64
C105
o16
o2
v43
v65
C106
n0
C107
n0
C108
n0
C109
n0
C110
n0
C111
n0
C112
n0
C113
n0
C114
n0
C115
n0
C116
n0
C117
n0
C118
n0
C119
n0
C120
n0
C121
n0
C122
n0
C123
n0
C124
n0
C125
n0
C126
n0
C127
n0
C128
n0
C129
n0
C130
n0
C131
n0
C132
n0
C133
n0
C134
n0
C135
n0
C136
n0
C137
n0
C138
n0
C139
n0
C140
n0
C141
n0
C142
n0
C143
n0
C144
n0
C145
n0
C146
n0
C147
n0
C148
n0
C149
n0
C150
n0
C151
n0
C152
n0
C153
n0
C154
n0
C155
n0
C156
n0
C157
n0
C158
n0
C159
n0
C160
n0
C161
n0
C162
n0
C163
n0
C164
n0
C165
n0
C166
n0
C167
n0
C168
n0
C169
n0
C170
n0
C171
n0
C172
n0
C173
n0
O0 0
n0
k157
13
26
39
52
54
56
58
60
62
64
66
68
70
72
74
76
78
80
82
84
86
88
90
92
94
96
98
100
114
128
141
154
156
158
160
162
164
166
168
170
172
174
176
178
180
182
184
186
188
190
192
194
196
198
200
202
204
206
215
224
233
242
250
258
266
274
288
302
304
316
328
330
332
334
336
338
340
342
344
346
348
350
352
354
356
358
360
362
364
366
368
370
372
374
376
383
390
397
404
406
408
410
412
414
416
418
420
422
424
426
428
430
432
434
436
438
440
442
444
446
448
450
452
454
456
458
460
464
468
473
478
483
488
493
498
503
508
513
518
523
528
533
538
543
548
553
558
563
568
573
578
583
588
596
603
611
618
J0 3
66 0
67 0
68 1
J1 2
0 0
2 0
J2 2
1 0
3 0
J3 2
28 0
29 0
J4 5
16 0
28 0
69 1
71 1
129 -1
J5 5
16 0
29 0
70 1
72 1
130 -1
J6 5
17 0
28 0
69 1
73 1
131 -1
J7 5
17 0
29 0
70 1
74 1
132 -1
J8 5
18 0
28 0
69 1
75 1
133 -1
J9 5
18 0
29 0
70 1
76 1
134 -1
J10 5
19 0
28 0
69 1
77 1
135 -1
J11 5
19 0
29 0
70 1
78 1
136 -1
J12 5
20 0
28 0
69 1
79 1
137 -1
J13 5
20 0
29 0
70 1
80 1
138 -1
J14 5
21 0
28 0
69 1
81 1
139 -1
J15 5
21 0
29 0
70 1
82 1
140 -1
J16 5
22 0
28 0
69 1
83 1
141 -1
J17 5
22 0
29 0
70 1
84 1
142 -1
J18 5
23 0
28 0
69 1
85 1
143 -1
J19 5
23 0
29 0
70 1
86 1
144 -1
J20 5
24 0
28 0
69 1
87 1
145 -1
J21 5
24 0
29 0
70 1
88 1
146 -1
J22 5
25 0
28 0
69 1
89 1
147 -1
J23 5
25 0
29 0
70 1
90 1
148 -1
J24 5
26 0
28 0
69 1
91 1
149 -1
J25 5
26 0
29 0
70 1
92 1
150 -1
J26 5
27 0
28 0
69 1
93 1
151 -1
J27 5
27 0
29 0
70 1
94 1
152 -1
J28 3
4 0
30 0
71 1
J29 3
4 0
31 0
72 1
J30 3
5 0
30 0
73 1
J31 3
5 0
31 0
74 1
J32 3
6 0
30 0
75 1
J33 3
6 0
31 0
76 1
J34 3
7 0
30 0
77 1
J35 3
7 0
31 0
78 1
J36 3
8 0
30 0
79 1
J37 3
8 0
31 0
80 1
J38 3
9 0
30 0
81 1
J39 3
9 0
31 0
82 1
J40 3
10 0
30 0
83 1
J41 3
10 0
31 0
84 1
J42 3
11 0
30 0
85 1
J43 3
11 0
31 0
86 1
J44 3
12 0
30 0
87 1
J45 3
12 0
31 0
88 1
J46 3
13 0
30 0
89 1
J47 3
13 0
31 0
90 1
J48 3
14 0
30 0
91 1
J49 3
14 0
31 0
92 1
J50 3
15 0
30 0
93 1
J51 3
15 0
31 0
94 1
J52 2
58 0
59 0
J53 2
60 0
61 0
J54 5
44 0
58 0
95 1
99 1
129 -1
J55 5
44 0
59 0
96 1
100 1
130 -1
J56 5
45 0
58 0
95 1
101 1
131 -1
J57 5
45 0
59 0
96 1
102 1
132 -1
J58 5
46 0
58 0
95 1
103 1
133 -1
J59 5
46 0
59 0
96 1
104 1
134 -1
J60 5
47 0
58 0
95 1
105 1
135 -1
J61 5
47 0
59 0
96 1
106 1
136 -1
J62 5
48 0
58 0
95 1
107 1
137 -1
J63 5
48 0
59 0
96 1
108 1
138 -1
J64 5
49 0
58 0
95 1
109 1
139 -1
J65 5
49 0
59 0
96 1
110 1
140 -1
J66 5
50 0
60 0
97 1
111 1
141 -1
J67 5
50 0
61 0
98 1
112 1
142 -1
J68 5
51 0
60 0
97 1
113 1
143 -1
J69 5
51 0
61 0
98 1
114 1
144 -1
J70 5
52 0
60 0
97 1
115 1
145 -1
J71 5
52 0
61 0
98 1
116 1
146 -1
J72 5
53 0
60 0
97 1
117 1
147 -1
J73 5
53 0
61 0
98 1
118 1
148 -1
J74 5
54 0
60 0
97 1
119 1
149 -1
J75 5
54 0
61 0
98 1
120 1
150 -1
J76 5
55 0
60 0
97 1
121 1
151 -1
J77 5
55 0
61 0
98 1
122 1
152 -1
J78 5
56 0
58 0
95 1
123 1
127 -1
J79 5
56 0
59 0
96 1
124 1
128 -1
J80 5
57 0
60 0
97 1
125 1
127 -1
J81 5
57 0
61 0
98 1
126 1
128 -1
J82 3
32 0
62 0
99 1
J83 3
32 0
63 0
100 1
J84 3
33 0
62 0
101 1
J85 3
33 0
63 0
102 1
J86 3
34 0
62 0
103 1
J87 3
34 0
63 0
104 1
J88 3
35 0
62 0
105 1
J89 3
35 0
63 0
106 1
J90 3
36 0
62 0
107 1
J91 3
36 0
63 0
108 1
J92 3
37 0
62 0
109 1
J93 3
37 0
63 0
110 1
J94 3
38 0
64 0
111 1
J95 3
38 0
65 0
112 1
J96 3
39 0
64 0
113 1
J97 3
39 0
65 0
114 1
J98 3
40 0
64 0
115 1
J99 3
40 0
65 0
116 1
J100 3
41 0
64 0
117 1
J101 3
41 0
65 0
118 1
J102 3
42 0
64 0
119 1
J103 3
42 0
65 0
120 1
J104 3
43 0
64 0
121 1
J105 3
43 0
65 0
122 1
J106 2
68 -1
157 1
J107 2
66 -1
127 1
J108 2
67 -1
128 1
J109 7
129 -.166666666666667
131 -.166666666666667
133 -.166666666666667
135 -.166666666666667
137 -.166666666666667
139 -.166666666666667
153 1
J110 7
130 -.166666666666667
132 -.166666666666667
134 -.166666666666667
136 -.166666666666667
138 -.166666666666667
140 -.166666666666667
154 1
J111 7
141 -.166666666666667
143 -.166666666666667
145 -.166666666666667
147 -.166666666666667
149 -.166666666666667
151 -.166666666666667
155 1
J112 7
142 -.166666666666667
144 -.166666666666667
146 -.166666666666667
148 -.166666666666667
150 -.166666666666667
152 -.166666666666667
156 1
J113 2
66 -1
129 1
J114 2
67 -1
130 1
J115 2
66 -1
131 1
J116 2
67 -1
132 1
J117 2
66 -1
133 1
J118 2
67 -1
134 1
J119 2
66 -1
135 1
J120 2
67 -1
136 1
J121 2
66 -1
137 1
J122 2
67 -1
138 1
J123 2
66 -1
139 1
J124 2
67 -1
140 1
J125 2
66 -1
141 1
J126 2
67 -1
142 1
J127 2
66 -1
143 1
J128 2
67 -1
144 1
J129 2
66 -1
145 1
J130 2
67 -1
146 1
J131 2
66 -1
147 1
J132 2
67 -1
148 1
J133 2
66 -1
149 1
J134 2
67 -1
150 1
J135 2
66 -1
151 1
J136 2
67 -1
152 1
J137 4
0 .833333333333333
2 .75
129 1
153 -1
J138 4
0 -.166666666666667
2 .75
131 1
153 -1
J139 4
0 -.666666666666667
2 .25
133 1
153 -1
J140 4
0 -.666666666666667
2 -.25
135 1
153 -1
J141 4
0 -.166666666666667
2 -.75
137 1
153 -1
J142 4
0 .833333333333333
2 -.75
139 1
153 -1
J143 4
1 .833333333333333
3 .75
141 1
155 -1
J144 4
1 -.166666666666667
3 .75
143 1
155 -1
J145 4
1 -.666666666666667
3 .25
145 1
155 -1
J146 4
1 -.666666666666667
3 -.25
147 1
155 -1
J147 4
1 -.166666666666667
3 -.75
149 1
155 -1
J148 4
1 .833333333333333
3 -.75
151 1
155 -1
J149 4
0 -.75
2 .833333333333333
130 1
154 -1
J150 4
0 -.75
2 -.166666666666667
132 1
154 -1
J151 4
0 -.25
2 -.666666666666667
134 1
154 -1
J152 4
0 .25
2 -.666666666666667
136 1
154 -1
J153 4
0 .75
2 -.166666666666667
138 1
154 -1
J154 4
0 .75
2 .833333333333333
140 1
154 -1
J155 4
1 -.75
3 .833333333333333
142 1
156 -1
J156 4
1 -.75
3 -.166666666666667
144 1
156 -1
J157 4
1 -.25
3 -.666666666666667
146 1
156 -1
J158 4
1 .25
3 -.666666666666667
148 1
156 -1
J159 4
1 .75
3 -.166666666666667
150 1
156 -1
J160 4
1 .75
3 .833333333333333
152 1
156 -1
J161 2
29 -1
30 1
J162 2
28 1
31 1
J163 2
59 -1
62 1
J164 2
61 -1
64 1
J165 2
58 1
63 1
J166 2
60 1
65 1
J167 2
62 1.2
123 1
J168 2
63 1.2
124 1
J169 2
64 1.2
125 1
J170 2
65 1.2
126 1
J171 1
127 1
J172 1
128 1
J173 2
153 1
155 -1
G0 1
157 1
